163
1000000
542639
150364
415
365802
476641
12340
329020
32796
852033
657706
321030
102989
126757
515620
209087
363332
715745
126514
158979
491063
76612
840989
180765
215763
26276
9574
41164
308457
15915
603503
523359
87355
117013
874317
287849
250886
524982
28082
570918
89756
412516
159719
325611
840281
203507
19900
639744
527504
430383
768494
2710
132955
724169
416566
406381
454879
908746
453629
832322
260286
593619
75626
396497
131226
209910
273816
448180
74111
659511
120892
275831
713576
22312
587484
506635
824882
94328
637300
313135
79767
708557
575784
467473
236664
129805
912645
469515
360256
10506
325842
419447
446836
472496
537477
559111
946604
493365
530485
471102
134074
72774
78171
163102
359329
613500
553172
971503
63598
871938
359534
424444
188030
254711
602045
362700
311285
115171
222256
623832
135614
41044
815510
483552
319784
284255
17098
628100
159011
636668
231506
125683
538724
486275
111350
147159
679633
233158
75166
47966
362950
105659
235058
739714
128062
354971
301002
927226
53396
477111
451369
91254
340489
513725
45800
320367
291443
179216
396414
920233
440470
432325
516448
575556
